NAME          hamck26e (cycles with Dantzig and EXPAND)
ROWS
 L  R1
 L  R2
 L  R3
 L  R4
 N  COST
COLUMNS
    C1        R1        0.4            R2        -7.8
    C1        R3        1.             COST      -2.3
    C2        R1        0.2            R2        -1.4
    C2        R4        1.             COST      -2.15
    C3        R1        -1.4           R2        7.8
    C3        COST      13.55
    C4        R1        -0.2           R2        0.4
    C4        COST      0.4
RHS
    b         R3        1.             R4        1.
ENDATA